NAME: random-34-30549
TYPE: TSP
COMMENT: size=34 seed=30549
DIMENSION: 70
EDGE_WEIGHT_TYPE: EUC_2D
NODE_COORD_SECTION
+0 43 55
-0 43 55
+1 645 192
-1 917 536
+2 830 450
-2 955 636
+3 13 826
-3 312 40
+4 729 176
-4 496 461
+5 156 721
-5 417 512
+6 137 458
-6 928 150
+7 908 175
-7 830 726
+8 89 80
-8 248 48
+9 549 572
-9 946 209
+10 621 223
-10 585 406
+11 24 665
-11 307 137
+12 349 836
-12 44 679
+13 531 750
-13 907 368
+14 362 570
-14 545 797
+15 886 70
-15 917 514
+16 169 67
-16 263 155
+17 581 173
-17 90 24
+18 407 485
-18 484 250
+19 572 354
-19 164 665
+20 799 243
-20 173 992
+21 805 598
-21 615 276
+22 395 434
-22 631 548
+23 464 905
-23 969 313
+24 648 584
-24 593 273
+25 191 235
-25 401 363
+26 548 981
-26 909 130
+27 484 780
-27 646 46
+28 178 558
-28 679 821
+29 598 198
-29 481 540
+30 727 757
-30 229 960
+31 668 884
-31 840 107
+32 972 238
-32 46 792
+33 994 90
-33 541 661
+34 453 506
-34 140 992
PRECEDENCE_SECTION
+0 -0
+1 -1
+2 -2
+3 -3
+4 -4
+5 -5
+6 -6
+7 -7
+8 -8
+9 -9
+10 -10
+11 -11
+12 -12
+13 -13
+14 -14
+15 -15
+16 -16
+17 -17
+18 -18
+19 -19
+20 -20
+21 -21
+22 -22
+23 -23
+24 -24
+25 -25
+26 -26
+27 -27
+28 -28
+29 -29
+30 -30
+31 -31
+32 -32
+33 -33
+34 -34
EOF
